333349.0
3649
0 1 2 3 4 5 6 7 8 11 13 15 16 17 18 21 23 25 26 27 28 31 32 36 37 39 40 41 42 43 46 47 51 52 53 55 56 57 58 59 60 61 62 63 64 65 66 67 69 70 72 73 74 75 77 79 80 81 84 85 86 89 90 93 95 96 97 98 99 100 103 104 105 106 108 110 111 112 113 114 115 116 117 118 119 121 122 123 124 126 128 129 130 131 133 134 136 137 138 139 140 141 142 143 144 145 146 147 148 149 150 151 156 157 158 160 161 162 163 164 165 166 167 169 170 172 173 174 175 176 178 179 180 183 184 185 186 187 188 189 190 191 192 194 196 198 